p cnf 165 557
1 -2 0
2 -1 0
3 -4 0
4 -3 0
5 -6 0
6 -5 0
7 -8 0
8 -7 0
9 -10 0
10 -9 0
11 -12 0
12 -11 0
13 -14 0
14 -13 0
15 -16 0
16 -15 0
17 -18 0
18 -17 0
19 -20 0
20 -19 0
21 -22 0
22 -21 0
23 -24 0
24 -23 0
25 -26 0
26 -25 0
27 -28 0
28 -27 0
29 -30 0
30 -29 0
31 -32 0
32 -31 0
33 -34 0
34 -33 0
35 -36 0
36 -35 0
37 -38 0
38 -37 0
39 -40 0
40 -39 0
41 -42 0
42 -41 0
43 -44 0
44 -43 0
45 -46 0
46 -45 0
47 -48 0
48 -47 0
49 -50 0
50 -49 0
51 -52 0
52 -51 0
53 -54 0
54 -53 0
55 -56 0
56 -55 0
57 -58 0
58 -57 0
59 -60 0
60 -59 0
61 -62 0
62 -61 0
63 -64 0
64 -63 0
65 -66 0
66 -65 0
67 -68 0
68 -67 0
69 -70 0
70 -69 0
71 -72 0
72 -71 0
73 -74 0
74 -73 0
75 -76 0
76 -75 0
77 -78 0
78 -77 0
79 -80 0
80 -79 0
45 -81 -82 0
81 -82 -45 0
82 -45 -81 0
81 45 82 0
-82 0
-21 69 -83 0
21 -69 -83 0
-21 83 -69 0
83 21 69 0
-27 75 -84 0
27 -84 -75 0
84 -27 -75 0
27 84 75 0
-33 -85 47 0
-47 33 -85 0
-47 -33 85 0
33 85 47 0
-86 -15 63 0
-86 15 -63 0
86 -63 -15 0
86 15 63 0
-13 61 -87 0
-87 13 -61 0
-13 87 -61 0
61 87 13 0
-19 -88 67 0
-88 -67 19 0
-19 88 -67 0
88 19 67 0
-17 -89 65 0
17 -89 -65 0
-17 89 -65 0
17 89 65 0
-3 51 -90 0
3 -51 -90 0
-3 -51 90 0
3 51 90 0
49 -91 -1 0
1 -49 -91 0
-49 91 -1 0
49 1 91 0
-92 -5 53 0
-92 -53 5 0
92 -53 -5 0
92 5 53 0
59 -11 -93 0
-93 -59 11 0
-11 -59 93 0
59 11 93 0
-94 -9 57 0
9 -57 -94 0
-57 94 -9 0
9 94 57 0
55 -7 -95 0
7 -55 -95 0
-55 95 -7 0
7 95 55 0
-96 79 -31 0
-96 -79 31 0
-79 96 -31 0
79 31 96 0
-29 77 -97 0
29 -77 -97 0
-29 -77 97 0
29 77 97 0
73 -25 -98 0
-73 25 -98 0
-25 -73 98 0
73 25 98 0
-23 -99 71 0
23 -71 -99 0
-23 -71 99 0
23 99 71 0
99 100 0
98 100 0
97 100 0
96 100 0
95 100 0
94 100 0
93 100 0
92 100 0
91 100 0
90 100 0
89 100 0
88 100 0
87 100 0
86 100 0
85 100 0
84 100 0
83 100 0
-92 -86 -96 -88 -89 -100 -91 -94 -84 -87 -99 -93 -97 -98 -90 -85 -83 -95 0
3 101 0
13 101 0
19 101 0
17 101 0
15 101 0
21 101 0
9 101 0
11 101 0
7 101 0
5 101 0
1 101 0
-3 -13 -19 -17 -15 -21 -101 -9 -11 -7 -5 -1 0
23 -102 -101 0
-23 -102 101 0
102 -23 -101 0
23 102 101 0
-33 103 0
103 -35 0
33 35 -103 0
23 -103 -104 0
102 103 -104 0
-23 -103 104 0
-102 103 104 0
23 102 -104 0
-23 -102 104 0
71 -104 -105 0
-71 104 -105 0
105 -71 -104 0
71 104 105 0
3 106 0
13 106 0
17 106 0
15 106 0
9 106 0
11 106 0
7 106 0
5 106 0
1 106 0
-3 -13 -17 -15 -9 -11 -7 -5 -1 -106 0
19 -106 -107 0
-19 106 -107 0
107 -19 -106 0
19 106 107 0
-103 19 -108 0
103 107 -108 0
-19 -103 108 0
103 -107 108 0
19 107 -108 0
-19 -107 108 0
67 -108 -109 0
-67 108 -109 0
109 -67 -108 0
67 108 109 0
3 110 0
13 110 0
23 110 0
19 110 0
17 110 0
25 110 0
27 110 0
15 110 0
21 110 0
9 110 0
11 110 0
7 110 0
5 110 0
1 110 0
-3 -13 -23 -19 -17 -25 -27 -15 -21 -9 -11 -7 -5 -1 -110 0
29 -110 -111 0
-29 110 -111 0
111 -29 -110 0
29 110 111 0
29 -103 -112 0
103 111 -112 0
-29 -103 112 0
103 -111 112 0
29 111 -112 0
-29 -111 112 0
77 -112 -113 0
-77 112 -113 0
113 -77 -112 0
77 112 113 0
3 114 0
7 114 0
5 114 0
1 114 0
-3 -7 -5 -1 -114 0
9 -114 -115 0
-9 114 -115 0
115 -9 -114 0
9 114 115 0
9 -103 -116 0
103 115 -116 0
-9 -103 116 0
103 -115 116 0
9 115 -116 0
-9 -115 116 0
57 -116 -117 0
-57 116 -117 0
117 -57 -116 0
57 116 117 0
3 118 0
13 118 0
23 118 0
19 118 0
17 118 0
25 118 0
15 118 0
21 118 0
9 118 0
11 118 0
7 118 0
5 118 0
1 118 0
-3 -13 -23 -19 -17 -25 -15 -21 -9 -11 -7 -5 -1 -118 0
27 -118 -119 0
-27 118 -119 0
119 -27 -118 0
27 118 119 0
27 -103 -120 0
103 119 -120 0
-27 -103 120 0
103 -119 120 0
27 119 -120 0
-27 -119 120 0
75 -120 -121 0
-75 120 -121 0
121 -75 -120 0
75 120 121 0
49 1 103 -122 0
-49 103 -1 -122 0
1 -49 -103 -122 0
49 -103 -1 -122 0
-49 -103 -1 122 0
49 1 -103 122 0
49 103 -1 122 0
1 -49 103 122 0
3 123 0
9 123 0
11 123 0
7 123 0
5 123 0
1 123 0
-3 -9 -11 -7 -5 -1 -123 0
13 -123 -124 0
-13 123 -124 0
124 -13 -123 0
13 123 124 0
-103 13 -125 0
103 124 -125 0
-13 -103 125 0
103 -124 125 0
13 124 -125 0
-13 -124 125 0
61 -125 -126 0
-61 125 -126 0
126 -61 -125 0
61 125 126 0
3 -1 -127 0
-3 1 -127 0
-3 -1 127 0
1 3 127 0
3 -103 -128 0
103 -127 -128 0
-3 -103 128 0
103 127 128 0
3 -127 -128 0
-3 127 128 0
51 -128 -129 0
-51 128 -129 0
129 -51 -128 0
51 128 129 0
-43 130 0
-33 130 0
43 33 -130 0
-35 130 -131 0
35 -130 -131 0
-35 -130 131 0
35 130 131 0
3 132 0
5 132 0
1 132 0
-3 -5 -1 -132 0
7 -132 -133 0
-7 132 -133 0
133 -7 -132 0
7 132 133 0
7 -103 -134 0
103 133 -134 0
-103 -7 134 0
103 -133 134 0
7 133 -134 0
-7 -133 134 0
55 -134 -135 0
-55 134 -135 0
135 -55 -134 0
55 134 135 0
-103 47 -136 0
-47 103 -136 0
136 -47 -103 0
103 47 136 0
3 137 0
9 137 0
7 137 0
5 137 0
1 137 0
-3 -9 -7 -5 -1 -137 0
11 -137 -138 0
-11 137 -138 0
138 -11 -137 0
11 137 138 0
-103 11 -139 0
103 138 -139 0
-11 -103 139 0
103 -138 139 0
11 138 -139 0
-11 -138 139 0
59 -139 -140 0
-59 139 -140 0
140 -59 -139 0
59 139 140 0
3 141 0
13 141 0
23 141 0
19 141 0
17 141 0
25 141 0
27 141 0
29 141 0
15 141 0
21 141 0
9 141 0
11 141 0
7 141 0
5 141 0
1 141 0
-3 -13 -23 -19 -17 -25 -27 -29 -15 -21 -9 -11 -7 -5 -1 -141 0
31 -141 -142 0
-31 141 -142 0
142 -31 -141 0
31 141 142 0
31 -103 -143 0
103 142 -143 0
-103 -31 143 0
103 -142 143 0
31 142 -143 0
-31 -142 143 0
79 -143 -144 0
-79 143 -144 0
144 -79 -143 0
79 143 144 0
3 145 0
13 145 0
23 145 0
19 145 0
17 145 0
15 145 0
21 145 0
9 145 0
11 145 0
7 145 0
5 145 0
1 145 0
-3 -13 -23 -19 -17 -15 -21 -9 -11 -7 -5 -1 -145 0
25 -145 -146 0
-25 145 -146 0
146 -25 -145 0
25 145 146 0
25 -103 -147 0
103 146 -147 0
-25 -103 147 0
103 -146 147 0
25 146 -147 0
-25 -146 147 0
73 -147 -148 0
-73 147 -148 0
148 -73 -147 0
73 147 148 0
3 149 0
13 149 0
19 149 0
17 149 0
15 149 0
9 149 0
11 149 0
7 149 0
5 149 0
1 149 0
-3 -13 -19 -17 -15 -9 -11 -7 -5 -1 -149 0
21 -149 -150 0
-21 149 -150 0
150 -21 -149 0
21 149 150 0
21 -103 -151 0
103 150 -151 0
-21 -103 151 0
103 -150 151 0
21 150 -151 0
-21 -150 151 0
69 -151 -152 0
-69 151 -152 0
152 -69 -151 0
69 151 152 0
3 153 0
13 153 0
9 153 0
11 153 0
7 153 0
5 153 0
1 153 0
-3 -13 -9 -11 -7 -5 -1 -153 0
15 -153 -154 0
-15 153 -154 0
154 -15 -153 0
15 153 154 0
15 -103 -155 0
103 154 -155 0
-15 -103 155 0
103 -154 155 0
15 154 -155 0
-15 -154 155 0
63 -155 -156 0
-63 155 -156 0
156 -63 -155 0
63 155 156 0
3 157 0
1 157 0
-3 -1 -157 0
5 -157 -158 0
-5 157 -158 0
158 -5 -157 0
5 157 158 0
-103 5 -159 0
103 158 -159 0
-103 -5 159 0
103 -158 159 0
5 158 -159 0
-5 -158 159 0
53 -159 -160 0
-53 159 -160 0
160 -53 -159 0
53 159 160 0
3 161 0
13 161 0
15 161 0
9 161 0
11 161 0
7 161 0
5 161 0
1 161 0
-3 -13 -15 -9 -11 -7 -5 -1 -161 0
17 -161 -162 0
-17 161 -162 0
162 -17 -161 0
17 161 162 0
17 -103 -163 0
103 162 -163 0
-17 -103 163 0
103 -162 163 0
17 162 -163 0
-17 -162 163 0
65 -163 -164 0
-65 163 -164 0
164 -65 -163 0
65 163 164 0
164 165 0
160 165 0
156 165 0
152 165 0
148 165 0
144 165 0
140 165 0
136 165 0
135 165 0
-131 165 0
129 165 0
126 165 0
122 165 0
121 165 0
117 165 0
113 165 0
109 165 0
105 165 0
-105 -109 -113 -117 -121 -122 -126 -129 131 -135 -136 -140 -144 -148 -152 -156 -160 -164 -165 0
-81 -165 0
81 -100 0
